p edge 15
e 0 1
e 0 3
e 0 8
e 0 9
e 0 11
e 0 14
e 1 6
e 1 8
e 1 9
e 1 10
e 1 12
e 1 13
e 2 3
e 2 4
e 2 14
e 3 4
e 3 11
e 3 14
e 4 7
e 4 11
e 5 12
e 5 13
e 6 9
e 6 10
e 7 11
e 7 12
e 8 11
e 8 12
e 9 14
e 10 13
e 11 12
e 12 13
c k 9
